c A SAT instance generated from a 3-CNF formula that had 40 clauses and 10 variables
p cnf 10 40
1 -5 7 0
5 1 -3 0
2 -8 1 0
-4 -1 -10 0
5 -2 -4 0
-1 8 -5 0
6 -1 8 0
1 -8 9 0
-1 -6 -8 0
-1 4 8 0
1 -6 9 0
9 1 7 0
-7 10 6 0
-10 -8 -9 0
-1 4 8 0
7 -5 6 0
-10 4 1 0
-8 5 2 0
-10 2 -7 0
-7 -9 8 0
-2 -10 4 0
5 -2 9 0
7 4 -10 0
7 -1 -6 0
-2 -7 5 0
6 -2 -8 0
7 -2 -10 0
9 7 -4 0
2 3 5 0
-7 -3 6 0
9 7 10 0
-5 7 1 0
9 -1 8 0
-4 6 -7 0
-2 7 -1 0
4 8 -7 0
2 6 -7 0
8 -10 -9 0
3 -7 8 0
1 6 -7 0
